db/inputs/27102320311417532431770111661971913699.smt2
(set-logic QF_FP)
(declare-const x0 (_ FloatingPoint 11 53))
(declare-const x1 (_ FloatingPoint 11 53))
(declare-const x2 (_ FloatingPoint 11 53))
(declare-const x3 (_ FloatingPoint 11 53))
(declare-const x4 (_ FloatingPoint 11 53))
(declare-const x5 (_ FloatingPoint 11 53))
(declare-const x6 (_ FloatingPoint 11 53))
(declare-const x7 (_ FloatingPoint 11 53))
(declare-const x8 (_ FloatingPoint 11 53))
(declare-const x9 (_ FloatingPoint 11 53))
(declare-const x10 (_ FloatingPoint 11 53))
(declare-const x11 (_ FloatingPoint 11 53))
(declare-const x12 (_ FloatingPoint 11 53))
(assert (fp.geq (fp.sub RNE x6 x12) (fp.mul RNE x2 x7)))
(assert (fp.lt (fp.mul RNE x5 x8) (fp.add RNE x10 x0)))
(assert (fp.lt (fp.mul RNE x12 x2) (fp.mul RNE x6 x1)))
(assert (fp.lt (fp.mul RNE x12 x8) (fp.mul RNE x6 x4)))
(assert (fp.lt (fp.div RNE x1 x10) (fp.add RNE x5 x11)))
(assert (fp.eq (fp.neg x5) (fp.div RNE x10 x8)))
(assert (fp.lt (fp.mul RNE x8 x10) (fp.mul RNE x6 x3)))
(assert (fp.leq (fp.add RNE x6 x3) (fp.add RNE x3 x10)))
(assert (fp.eq (fp.div RNE x11 x7) (fp.add RNE x3 x10)))
(check-sat)
