db/data/27102320311417532431770111661971913699.z3.out
-------------------
2500.086510464
